proyfinal/src/viki/013/andrea/andrea-localstore/experimentInOfficeAgust.take6/worker_11/3238751c-e8a7-4bea-b7d6-2b51c49eb309.als.cnf.out
Reading from standard input... Use '--help' for help.
============================[ Problem Statistics ]=============================
|                                                                             |
|  Number of variables:         87638                                         |
|  Number of clauses:          161767                                         |
|  Parse time:                   0.04 s                                       |
|                                                                             |
============================[ Search Statistics ]==============================
| Conflicts |          ORIGINAL         |          LEARNT          | Progress |
|           |    Vars  Clauses Literals |    Limit  Clauses Lit/Cl |          |
===============================================================================
|       100 |   62871   107220   267302 |    39314      100     10 | 28.261 % |
|       250 |   62871   107220   267302 |    43245      250     19 | 28.261 % |
|       475 |   62852   107144   267124 |    47569      474     53 | 28.282 % |
|       812 |   62852   107144   267124 |    52326      811     50 | 28.282 % |
|      1318 |   62848   107128   267080 |    57559     1273     59 | 28.287 % |
|      2077 |   62848   107128   267080 |    63315     2032     65 | 28.287 % |
|      3216 |   62848   107128   267080 |    69647     3171     81 | 28.287 % |
|      4924 |   62848   107128   267080 |    76611     4879     82 | 28.287 % |
|      7486 |   62825   106994   266775 |    84273     7044     83 | 28.313 % |
|     11330 |   62825   106994   266775 |    92700    10888     87 | 28.313 % |
===============================================================================
restarts              : 48
conflicts             : 11405          (8446 /sec)
decisions             : 56307          (0.00 % random) (41698 /sec)
propagations          : 14947709       (11069524 /sec)
conflict literals     : 975496         (43.53 % deleted)
Memory used           : 29.68 MB
CPU time              : 1.35035 s

INDETERMINATE
